CMD:
./solvers/bin/cadical --plain --no-reduce -t 1600 ./data/cnfs//qspiflash_qflexpress_divfive-p038/qspiflash_qflexpress_divfive-p038.64.cnf

c --- [ banner ] -------------------------------------------------------------
c 
c CaDiCaL SAT Solver
c Copyright (c) 2016-2024
c A. Biere, M. Fleury, N. Froleyks, K. Fazekas, F. Pollitt, T. Faller
c JKU Linz, University of Freiburg, TU Wien
c 
c Version 2.1.3 5296d3d2a9bf48c154ab2acb5e44625776d821bf
c g++ (Gentoo 12.3.1_p20230526 p2) 12.3.1 20230526 -Wall -Wextra -O3 -DNDEBUG
c Sat Aug 9 07:26:21 PDT 2025 Linux cedar2.int.cedar.computecanada.ca 5.14.0-362.24.2.el9_3.x86_64 x86_64
c 
c --- [ limit ] --------------------------------------------------------------
c 
c setting time limit to 1600 seconds real time (due to '-t 1600')
c 
c --- [ parsing input ] ------------------------------------------------------
c 
c reading DIMACS file from './data/cnfs//qspiflash_qflexpress_divfive-p038/qspiflash_qflexpress_divfive-p038.64.cnf'
c opening file to read './data/cnfs//qspiflash_qflexpress_divfive-p038/qspiflash_qflexpress_divfive-p038.64.cnf'
c found 'p cnf 170975 498379' header
c parsed 498379 clauses in 0.08 seconds process time
c 
c --- [ options ] ------------------------------------------------------------
c 
c   --compact=false                (different from default 'true')
c   --decompose=false              (different from default 'true')
c   --deduplicate=false            (different from default 'true')
c   --elim=false                   (different from default 'true')
c   --probe=false                  (different from default 'true')
c   --reduce=false                 (different from default 'true')
c   --subsume=false                (different from default 'true')
c   --ternary=false                (different from default 'true')
c   --transred=false               (different from default 'true')
c   --vivify=false                 (different from default 'true')
c 
c --- [ solving ] ------------------------------------------------------------
c 
c time measured in process time since initialization
c 
c  seconds  reductions  redundant  irredundant
c         MB    restarts       trail       variables
c          level   conflicts       glue          remaining
c 
c *  0.08 79  0 0   0    0    0  0% 0 483341 161743 95%
c {  0.12 82  0 0   0    0    0  0% 0 483341 161743 95%
c i  0.14 82 15 0   0   14   11 14% 4 483341 161732 95%
c i  0.15 82 21 0   0   21   17 15% 4 483341 161492 94%
c i  0.16 82 60 0   0   29   23 16% 11 483341 161441 94%
c i  0.19 83 76 0  14  173  162 12% 16 483341 161338 94%
c i  0.25 83 75 0  14  895  768 18% 9 483341 161337 94%
c i  0.26 83 74 0  18  935  802 18% 10 483341 161283 94%
c }  0.30 83 72 0  19 1007  869 18% 10 483341 161283 94%
c [  0.30 83  0 0  19 1007  869  0% 0 483341 161283 94%
c O  0.33 83 942 0  19 1008  870 93% 2 483341 161283 94%
c i  0.43 83 837 0  19 1955 1723 80% 10 483341 161279 94%
c i  0.46 83 807 0  20 2086 1843 77% 10 483341 161278 94%
c i  0.47 83 778 0  20 2129 1879 75% 10 483341 161274 94%
c i  0.48 83 726 0  20 2213 1952 70% 10 483341 161273 94%
c i  0.49 83 671 0  20 2315 2045 65% 9 483341 161272 94%
c i  0.55 83 492 0  20 2840 2520 55% 8 483341 161271 94%
c ]  0.57 83 455 0  20 3009 2668 52% 7 483341 161271 94%
c {  0.57 83 72 0  20 3009 2668 18% 10 483341 161271 94%
c F  0.57 83 72 0  21 3010 2669 18% 10 483341 161271 94%
c 
c  seconds  reductions  redundant  irredundant
c         MB    restarts       trail       variables
c          level   conflicts       glue          remaining
c 
c i  0.62 84 80 0  21 3327 2961 22% 9 483341 161267 94%
c i  0.69 84 78 0  32 3796 3385 21% 8 483341 161266 94%
c i  0.72 84 76 0  33 3994 3558 20% 8 483341 161262 94%
c i  0.77 84 76 0  41 4223 3759 20% 8 483341 161261 94%
c i  0.80 84 82 0  41 4464 3972 22% 8 483341 161257 94%
c i  0.81 84 83 0  41 4551 4039 22% 8 483341 161256 94%
c i  0.82 84 83 0  43 4588 4071 22% 8 483341 161252 94%
c i  0.83 84 81 0  43 4686 4144 22% 8 483341 161132 94%
c i  0.83 84 81 0  43 4687 4144 22% 8 483341 161128 94%
c i  0.91 84 81 0  47 5538 4880 22% 7 483341 161124 94%
c i  0.92 84 81 0  48 5559 4899 22% 7 483341 161119 94%
c #  0.99 84 82 0  53 6012 5281 22% 7 483341 161119 94%
c i  1.00 84 82 0  53 6032 5299 22% 7 483341 160952 94%
c i  1.02 84 80 0  53 6136 5397 22% 7 483341 160948 94%
c i  1.08 84 75 0  53 6614 5811 21% 6 483341 160944 94%
c i  1.09 84 75 0  53 6626 5819 21% 6 483341 160940 94%
c i  1.09 84 74 0  53 6682 5857 21% 6 483341 160934 94%
c i  1.10 84 74 0  53 6701 5873 21% 6 483341 160821 94%
c i  1.13 84 72 0  54 6937 6060 21% 6 483341 160817 94%
c }  1.13 84 73 0  54 7009 6128 21% 6 483341 160817 94%
c 
c  seconds   reductions  redundant  irredundant
c         MB     restarts       trail       variables
c           level   conflicts       glue          remaining
c 
c [  1.13 84 455 0  54 7009 6128 52% 7 483341 160817 94%
c i  1.15 84 443 0  54 7079 6184 51% 7 483341 160808 94%
c i  1.20 84 381 0  55 7447 6504 45% 7 483341 160807 94%
c i  1.45 85 237 0  55 9123 7965 32% 7 483341 160755 94%
c i  1.45 85 236 0  55 9141 7981 32% 7 483341 160635 94%
c i  1.46 85 233 0  55 9196 8016 32% 7 483341 160627 94%
c i  1.47 85 232 0  55 9212 8028 32% 7 483341 158733 93%
c i  1.47 85 232 0  56 9216 8030 32% 7 483341 155644 91%
c ]  1.47 85 232 0  56 9218 8030 32% 7 483341 155583 91%
c 0  1.47 85 232 0  56 9218 8030 32% 7 483341 155583 91%
c 
c --- [ result ] -------------------------------------------------------------
c 
s UNSATISFIABLE
c 
c --- [ run-time profiling ] -------------------------------------------------
c 
c process time taken by individual solving procedures
c (percentage relative to process time for solving)
c 
c         1.39   99.99% search
c         0.74   52.92% unstable
c         0.61   43.80% stable
c         0.08    5.42% parse
c         0.05    3.27% lucky
c         0.00    0.00% simplify
c   =================================
c         1.39   94.82% solve
c 
c last line shows process time for solving
c (percentage relative to total process time)
c 
c --- [ statistics ] ---------------------------------------------------------
c 
c chronological:              3654        39.64 %  of conflicts
c conflicts:                  9218      6621.44    per second
c decisions:                 23049     16556.47    per second
c fixed:                     15391         9.00 %  of all variables
c learned:                    8722        94.62 %  per conflict
c learned_lits:             196811       100.00 %  learned literals
c minimized:                     0         0.00 %  learned literals
c shrunken:                  24277        12.34 %  learned literals
c minishrunken:              29592        15.04 %  learned literals
c otfs:                        174         1.89 %  of conflict
c propagations:           18973091        13.63 M  per second
c rephased:                      3      3072.67    interval
c restarts:                     56       164.61    interval
c stabilizing:                   2        45.68 %  of conflicts
c subsumed:                    654         0.13 %  of all clauses
c strengthened:                174         0.04 %  of all clauses
c 
c seconds are measured in process time for solving
c 
c --- [ resources ] ----------------------------------------------------------
c 
c total process time since initialization:         1.47    seconds
c total real time since initialization:            1.50    seconds
c maximum resident set size of process:           83.50    MB
c 
c --- [ shutting down ] ------------------------------------------------------
c 
c exit 20
